DIMENSION: 10
EDGE_WEIGHT_TYPE: EXPLICIT
EDGE_WEIGHT_FORMAT: FULL_MATRIX
EDGE_WEIGHT_SECTION:
32767 32 53 27 77 29 32767 32767 91 51 
32 32767 14 32767 99 6 18 4 50 83 
53 14 32767 71 82 47 28 25 10 34 
27 32767 71 32767 9 32767 40 69 46 53 
77 99 82 9 32767 97 90 77 11 52 
29 6 47 32767 97 32767 47 40 25 36 
32767 18 28 40 90 47 32767 16 42 59 
32767 4 25 69 77 40 16 32767 81 16 
91 50 10 46 11 25 42 81 32767 73 
51 83 34 53 52 36 59 16 73 32767 
EOF